m = 3; % Numero de LINACs
p = 5; % Numero de nuevos pacientes
s = 5; % Sesiones por tanda

% Tiempo disponible para cada LINAC (sacando el tiempo ya comprometido)
disponible = array2d(1..m, 1..7*3,
  [
    % Disponibilidad en los 21 dias del LINAC 1
    48, 36, 48, 48, 24, 48, 48,
    48, 36, 48, 48, 48, 24, 48,
    48, 48, 48, 36, 48, 48, 48,
    % Disponibilidad en los 21 dias del LINAC 2
    48, 48, 36, 48, 48, 48, 36,
    48, 48, 48, 48, 24, 48, 48,
    36, 48, 48, 48, 24, 48, 48,
    % Disponibilidad en los 21 dias del LINAC 3
    36, 48, 48, 24, 48, 48, 48,
    48, 24, 48, 36, 48, 48, 48,
    48, 48, 48, 36, 48, 48, 48
  ]);

% Dias de la semana en los que se hizo la solicitud (1=Lunes, ..., 5=Viernes)
solicitud = [1, 2, 3, 4, 5];

% Duracion de cada sesion por paciente
duracion = array2d(1..p, 1..s,
  [
    4, 5, 4, 6, 5,
    6, 5, 7, 6, 5,
    8, 9, 8, 7, 8,
    5, 4, 6, 5, 4,
    7, 8, 7, 6, 7
  ]);

% Separacion ideal entre sesiones
separacion = array2d(1..p, 1..s,
  [
    2, 2, 2, 2, 2,
    3, 2, 2, 2, 2,
    4, 3, 3, 3, 3,
    2, 2, 2, 2, 2,
    3, 2, 2, 2, 2
  ]);
